CMD:
./solvers/bin/cadical --plain --no-reduce -t 1600 ./data/cnfs//cal86/cal86.30.cnf

c --- [ banner ] -------------------------------------------------------------
c 
c CaDiCaL SAT Solver
c Copyright (c) 2016-2024
c A. Biere, M. Fleury, N. Froleyks, K. Fazekas, F. Pollitt, T. Faller
c JKU Linz, University of Freiburg, TU Wien
c 
c Version 2.1.3 5296d3d2a9bf48c154ab2acb5e44625776d821bf
c g++ (Gentoo 12.3.1_p20230526 p2) 12.3.1 20230526 -Wall -Wextra -O3 -DNDEBUG
c Sat Aug 9 07:26:21 PDT 2025 Linux cedar2.int.cedar.computecanada.ca 5.14.0-362.24.2.el9_3.x86_64 x86_64
c 
c --- [ limit ] --------------------------------------------------------------
c 
c setting time limit to 1600 seconds real time (due to '-t 1600')
c 
c --- [ parsing input ] ------------------------------------------------------
c 
c reading DIMACS file from './data/cnfs//cal86/cal86.30.cnf'
c opening file to read './data/cnfs//cal86/cal86.30.cnf'
c found 'p cnf 745987 2117340' header
c parsed 2117340 clauses in 0.39 seconds process time
c 
c --- [ options ] ------------------------------------------------------------
c 
c   --compact=false                (different from default 'true')
c   --decompose=false              (different from default 'true')
c   --deduplicate=false            (different from default 'true')
c   --elim=false                   (different from default 'true')
c   --probe=false                  (different from default 'true')
c   --reduce=false                 (different from default 'true')
c   --subsume=false                (different from default 'true')
c   --ternary=false                (different from default 'true')
c   --transred=false               (different from default 'true')
c   --vivify=false                 (different from default 'true')
c 
c --- [ solving ] ------------------------------------------------------------
c 
c time measured in process time since initialization
c 
c  seconds   reductions  redundant   irredundant
c          MB    restarts       trail        variables
c           level   conflicts       glue           remaining
c 
c *  0.39 321  0 0   0    0    0  0% 0 1966287 711830 95%
c {  0.41 322  0 0   0    0    0  0% 0 1966287 711830 95%
c i  2.04 332 16994 0  19  798  723 48% 2 1966287 711814 95%
c }  2.39 332 13731 0  62 1000  887 41% 7 1966287 711814 95%
c [  2.40 332  0 0  62 1000  887  0% 0 1966287 711814 95%
c O  2.44 332 1402 0  62 1004  890 11% 1 1966287 711814 95%
c i  2.44 332 1402 0  62 1004  890 11% 1 1966287 711813 95%
c i  2.45 332 1980 0  62 1009  893 15% 1 1966287 711812 95%
c i  2.46 332 2542 0  62 1013  895 17% 1 1966287 711811 95%
c i  2.47 332 3125 0  62 1017  897 19% 1 1966287 711810 95%
c i  2.48 332 3718 0  62 1021  899 20% 1 1966287 711809 95%
c i  2.49 332 4317 0  62 1025  901 22% 1 1966287 711808 95%
c i  2.49 332 4918 0  62 1029  903 24% 1 1966287 711807 95%
c i  2.50 332 5520 0  62 1033  905 25% 1 1966287 711806 95%
c i  2.51 332 6124 0  62 1037  907 27% 1 1966287 711805 95%
c i  2.52 332 6729 0  62 1041  909 28% 1 1966287 711804 95%
c i  2.53 332 7335 0  62 1045  911 30% 1 1966287 711803 95%
c i  2.53 332 7941 0  62 1049  913 31% 1 1966287 711802 95%
c i  2.54 332 8548 0  62 1053  915 33% 1 1966287 711801 95%
c i  2.55 332 9154 0  62 1057  917 34% 1 1966287 711800 95%
c 
c  seconds     reductions  redundant   irredundant
c          MB      restarts       trail        variables
c            level    conflicts       glue           remaining
c 
c i  2.56 332 9761 0  62 1061  919 36% 1 1966287 711799 95%
c i  2.57 332 10369 0  62 1065  921 37% 1 1966287 711798 95%
c i  2.58 332 10976 0  62 1069  923 39% 1 1966287 711797 95%
c i  2.59 333 11584 0  62 1073  925 40% 1 1966287 711796 95%
c i  2.59 333 12191 0  62 1077  927 42% 1 1966287 711795 95%
c i  2.60 333 12799 0  62 1081  929 43% 1 1966287 711794 95%
c i  2.61 333 13407 0  62 1085  931 45% 1 1966287 711793 95%
c i  2.62 333 14015 0  62 1089  933 46% 1 1966287 711792 95%
c i  2.63 333 14623 0  62 1093  935 48% 1 1966287 711791 95%
c i  2.64 333 15231 0  62 1097  937 49% 1 1966287 711790 95%
c i  2.65 333 15839 0  62 1101  939 51% 1 1966287 711789 95%
c i  2.66 333 16447 0  62 1105  941 52% 1 1966287 711788 95%
c i  2.68 333 17474 0  62 1112  946 55% 1 1966287 711787 95%
c i  2.69 333 18052 0  62 1116  948 56% 1 1966287 711786 95%
c i  2.69 333 18771 0  62 1121  951 58% 1 1966287 711785 95%
c ]  3.19 334 32653 0  63 3000 2701 92% 13 1966287 711669 95%
c {  3.19 334 13731 0  63 3000 2701 41% 7 1966287 711669 95%
c F  3.28 334 13673 0  65 3005 2705 41% 7 1966287 711669 95%
c i  3.94 334 5833 0  76 4374 3885 28% 5 1966287 711666 95%
c i  4.57 335 3995 0  90 5494 4861 26% 5 1966287 711665 95%
c 
c  seconds     reductions  redundant   irredundant
c          MB      restarts       trail        variables
c            level    conflicts       glue           remaining
c 
c i  4.58 335 3956 0  91 5531 4892 26% 5 1966287 711662 95%
c #  5.22 335 3506 0 119 6006 5303 26% 5 1966287 711662 95%
c }  5.76 335 2832 0 137 7001 6191 27% 5 1966287 711662 95%
c [  5.76 335 32653 0 137 7001 6191 92% 13 1966287 711662 95%
... skipped 305 lines ...
c i 1169.60 758 145 0 63312 1479292 1319636 21% 11 1928689 711049 95%
c F 1179.42 758 145 0 63747 1485112 1324730 21% 11 1928689 711049 95%
c i 1220.77 761 147 0 65624 1511343 1348265 22% 11 1928689 711046 95%
c i 1220.97 761 148 0 65626 1511722 1348609 22% 11 1928689 711043 95%
c i 1221.16 761 149 0 65628 1512175 1349035 22% 11 1928689 711040 95%
c i 1239.34 765 147 0 66890 1522335 1358380 22% 11 1928689 711037 95%
c i 1252.47 768 149 0 67411 1529827 1365143 22% 11 1928689 711034 95%
c i 1261.29 770 146 0 67896 1535573 1370318 22% 11 1928689 711031 95%
c B 1269.29 771 146 0 68284 1540113 1374399 22% 11 1928689 711031 95%
c i 1270.05 771 146 0 68297 1540468 1374739 22% 11 1928689 711028 95%
c i 1271.27 771 147 0 68322 1541616 1375762 22% 11 1928689 711025 95%
c 
c   seconds     reductions         redundant     irredundant
c            MB      restarts              trail         variables
c              level       conflicts           glue            remaining
c 
c i 1271.28 771 147 0 68322 1541661 1375804 22% 11 1928689 711024 95%
c i 1320.97 779 142 0 70736 1571916 1403124 22% 11 1928689 711021 95%
c i 1354.74 785 140 0 72380 1589349 1418927 22% 11 1928689 711018 95%
c i 1359.15 785 139 0 72594 1592353 1421693 22% 11 1928689 711017 95%
c i 1359.15 785 139 0 72594 1592402 1421740 22% 11 1928689 711015 95%
c W 1368.64 806 138 0 73098 1596117 1425093 21% 11 1928536 711014 95%
c i 1374.91 806 138 0 73348 1599429 1428097 21% 11 1928536 711011 95%
c i 1380.66 807 138 0 73492 1603502 1431817 21% 11 1928536 711008 95%
c i 1380.72 807 138 0 73494 1603590 1431897 21% 11 1928536 711005 95%
c i 1386.13 808 144 0 73695 1608263 1436175 22% 11 1928536 711002 95%
c i 1401.72 808 145 0 74491 1616289 1443293 22% 11 1928536 710999 95%
c i 1415.42 808 144 0 75565 1626480 1452336 22% 11 1928536 710997 95%
c # 1458.31 810 134 0 78000 1653118 1475372 21% 11 1928536 710996 95%
c i 1472.28 811 127 0 78606 1669908 1487773 21% 11 1928536 710993 95%
c i 1472.35 811 127 0 78606 1670080 1487930 21% 11 1928536 710991 95%
c i 1472.35 811 128 0 78606 1670108 1487956 21% 11 1928536 710987 95%
c i 1472.47 811 128 0 78606 1670395 1488214 21% 11 1928536 710984 95%
c i 1484.39 811 106 0 78784 1696576 1505338 20% 10 1928536 710981 95%
c i 1484.53 811 107 0 78784 1696775 1505517 20% 10 1928536 710978 95%
c i 1499.47 811 108 0 79645 1704864 1512616 20% 10 1928536 710975 95%
c 
c   seconds     reductions         redundant     irredundant
c            MB      restarts              trail         variables
c              level       conflicts           glue            remaining
c 
c B 1509.20 811 107 0 80344 1711120 1518292 19% 10 1928536 710975 95%
c i 1518.14 811 104 0 81352 1719183 1524856 19% 10 1928536 710972 95%
c W 1589.66 833 96 0 87853 1770121 1538720 18% 11 1928388 710972 95%
c } 1591.08 833 95 0 87961 1770896 1539362 18% 11 1928388 710972 95%
c ? 1591.08 833 95 0 87961 1770896 1539362 18% 11 1928388 710972 95%
c 
c --- [ result ] -------------------------------------------------------------
c 
c UNKNOWN
c 
c --- [ run-time profiling ] -------------------------------------------------
c 
c process time taken by individual solving procedures
c (percentage relative to process time for solving)
c 
c      1590.69  100.00% search
c      1268.26   79.73% unstable
c       308.97   19.42% stable
c        13.44    0.84% walk
c         0.39    0.02% parse
c         0.02    0.00% lucky
c         0.00    0.00% simplify
c   =================================
c      1590.69   99.98% solve
c 
c last line shows process time for solving
c (percentage relative to total process time)
c 
c --- [ statistics ] ---------------------------------------------------------
c 
c chronological:            686130        38.74 %  of conflicts
c conflicts:               1770896      1113.29    per second
c decisions:              13008534      8177.93    per second
c fixed:                     34990         4.69 %  of all variables
c learned:                 1709345        96.52 %  per conflict
c learned_lits:          130251994       100.00 %  learned literals
c minimized:                     0         0.00 %  learned literals
c shrunken:               34129507        26.20 %  learned literals
c minishrunken:           24057154        18.47 %  learned literals
c otfs:                      11197         0.63 %  of conflict
c propagations:        11515082826         7.24 M  per second
c rephased:                     59     30015.19    interval
c restarts:                  87961        20.13    interval
c stabilizing:                   5        38.49 %  of conflicts
c subsumed:                 137571         3.74 %  of all clauses
c strengthened:              10301         0.28 %  of all clauses
c walked:                       19     93205.05    interval
c 
c seconds are measured in process time for solving
c 
c --- [ resources ] ----------------------------------------------------------
c 
c total process time since initialization:      1591.08    seconds
c total real time since initialization:         1600.00    seconds
c maximum resident set size of process:         1169.74    MB
c 
c --- [ shutting down ] ------------------------------------------------------
c 
c exit 0
